\ENCODING=ISO-8859-1
\Problem name: ilog.cplex

Minimize
 obj1: 108610 x1 + 107174 x2 + 99060 x3 + 103167 x4 + 104597 x5 + 97166 x6
       + 91498 x7 + 104177 x8 + 105768 x9 + 95928 x10 + 99593 x11 + 103632 x12
       + 107259 x13 + 92578 x14 + 101884 x15 + 103854 x16 + 98436 x17
       + 101480 x18 + 103779 x19 + 92392 x20 + 102685 x21 + 100726 x22
       + 107174 x23 + 93656 x24 + 92596 x25 + 93053 x26 + 100509 x27
       + 92911 x28 + 108699 x29 + 96936 x30 + 101090 x31 + 91926 x32
       + 93635 x33 + 101442 x34 + 100562 x35 + 109264 x36 + 93051 x37
       + 104831 x38 + 109136 x39 + 102377 x40 + 109556 x41 + 103931 x42
       + 104506 x43 + 103571 x44 + 106675 x45 + 109032 x46 + 107344 x47
       + 107370 x48 + 106038 x49 + 107288 x50 + 106848 x51 + 102943 x52
       + 102924 x53 + 106594 x54 + 107011 x55 + 91976 x56 + 102808 x57
       + 101417 x58 + 97144 x59 + 109750 x60 + 95165 x61 + 105779 x62
       + 101244 x63 + 103765 x64 + 94060 x65 + 106430 x66 + 97639 x67
       + 93049 x68 + 109441 x69 + 94402 x70 + 99413 x71 + 91016 x72 + 92052 x73
       + 102946 x74 + 109299 x75 + 103634 x76 + 95252 x77 + 108682 x78
       + 97374 x79 + 105331 x80 + 99254 x81 + 102004 x82 + 95988 x83
       + 96655 x84 + 101510 x85 + 105330 x86 + 107434 x87 + 91226 x88
       + 92425 x89 + 102635 x90 + 99940 x91 + 104096 x92 + 108533 x93
       + 97475 x94 + 103364 x95 + 102725 x96 + 98902 x97 + 106121 x98
       + 92398 x99 + 96488 x100 + 94766 x101 + 97413 x102 + 102119 x103
       + 100958 x104 + 97254 x105 + 91620 x106 + 98439 x107 + 99169 x108
       + 93568 x109 + 106837 x110 + 104268 x111 + 93638 x112 + 98061 x113
       + 93362 x114 + 101152 x115 + 100149 x116 + 91440 x117 + 104000 x118
       + 105699 x119 + 97111 x120 + 92781 x121 + 103980 x122 + 102269 x123
       + 98193 x124 + 106700 x125 + 90607 x126 + 92809 x127 + 105304 x128
       + 101439 x129 + 90918 x130 + 99514 x131 + 101419 x132 + 106021 x133
       + 103930 x134 + 105403 x135 + 108329 x136 + 103411 x137 + 96558 x138
       + 102798 x139 + 93957 x140 + 90995 x141 + 96581 x142 + 90761 x143
       + 106378 x144 + 105202 x145 + 106942 x146 + 97810 x147 + 95909 x148
       + 109253 x149 + 103338 x150 + 108657 x151 + 108649 x152 + 96464 x153
       + 100072 x154 + 97501 x155 + 100680 x156 + 100635 x157 + 102734 x158
       + 109784 x159 + 108520 x160 + 109740 x161 + 90526 x162 + 109371 x163
       + 98513 x164 + 109482 x165 + 105919 x166 + 98714 x167 + 105490 x168
       + 99232 x169 + 94780 x170 + 105866 x171 + 99344 x172 + 104436 x173
       + 96279 x174 + 94089 x175 + 107099 x176 + 96807 x177 + 108572 x178
       + 107330 x179 + 107570 x180 + 105934 x181 + 108423 x182 + 92644 x183
       + 91976 x184 + 106295 x185 + 90649 x186 + 101848 x187 + 91237 x188
       + 91766 x189 + 99190 x190 + 108178 x191 + 92317 x192 + 93643 x193
       + 92949 x194 + 103668 x195 + 97227 x196 + 103922 x197 + 100277 x198
       + 108254 x199 + 102521 x200 + 98704 x201 + 96789 x202 + 91643 x203
       + 100168 x204 + 93963 x205 + 95851 x206 + 96669 x207 + 106137 x208
       + 109708 x209 + 101032 x210 + 108925 x211 + 90751 x212 + 93735 x213
       + 93260 x214 + 90440 x215 + 98643 x216 + 91981 x217 + 94526 x218
       + 98798 x219 + 95566 x220 + 108890 x221 + 104666 x222 + 107312 x223
       + 104278 x224 + 98293 x225 + 108097 x226 + 106754 x227 + 92430 x228
       + 102938 x229 + 93327 x230 + 104608 x231 + 91601 x232 + 99139 x233
       + 99666 x234 + 103946 x235 + 98546 x236 + 101918 x237 + 102729 x238
       + 100747 x239 + 97240 x240 + 103444 x241 + 94769 x242 + 91775 x243
       + 95757 x244 + 92272 x245 + 102115 x246 + 97203 x247 + 104979 x248
       + 103672 x249 + 109461 x250 + 104236 x251 + 92113 x252 + 90701 x253
       + 92402 x254 + 93405 x255 + 101399 x256 + 101172 x257 + 109991 x258
       + 105662 x259 + 102220 x260 + 104475 x261 + 105039 x262 + 91450 x263
       + 100022 x264 + 92302 x265 + 104296 x266 + 105956 x267 + 93885 x268
       + 94503 x269 + 92338 x270 + 90174 x271 + 108352 x272 + 99461 x273
       + 98185 x274 + 90820 x275 + 90091 x276 + 92125 x277 + 99463 x278
       + 91255 x279 + 93604 x280 + 102262 x281 + 95344 x282 + 90269 x283
       + 104407 x284 + 90476 x285 + 106570 x286 + 95898 x287 + 102994 x288
       + 90211 x289 + 108510 x290 + 97425 x291 + 98366 x292 + 90218 x293
       + 91535 x294 + 100283 x295 + 96033 x296 + 103847 x297 + 91892 x298
       + 95785 x299 + 92130 x300 + 102650 x301 + 96289 x302 + 109900 x303
       + 98168 x304 + 104782 x305 + 109636 x306 + 101136 x307 + 102388 x308
       + 105975 x309 + 92150 x310 + 102283 x311 + 105550 x312 + 105557 x313
       + 104864 x314 + 109260 x315 + 97881 x316 + 93616 x317 + 105772 x318
       + 90731 x319 + 98984 x320 + 102360 x321 + 105790 x322 + 102959 x323
       + 92054 x324 + 106238 x325 + 105723 x326 + 97046 x327 + 102814 x328
       + 98884 x329 + 100812 x330 + 90211 x331 + 93085 x332 + 97299 x333
       + 97525 x334 + 107928 x335 + 102375 x336 + 96656 x337 + 101084 x338
       + 99550 x339 + 99924 x340 + 102752 x341 + 101558 x342 + 106486 x343
       + 104395 x344 + 103353 x345 + 91424 x346 + 99014 x347 + 108680 x348
       + 104547 x349 + 108093 x350 + 95530 x351 + 93297 x352 + 93704 x353
       + 91210 x354 + 96299 x355 + 103392 x356 + 96763 x357 + 96406 x358
       + 102727 x359 + 101604 x360 + 91862 x361 + 108193 x362 + 109933 x363
       + 102711 x364 + 97641 x365 + 108673 x366 + 105271 x367 + 108382 x368
       + 92290 x369 + 100220 x370 + 104414 x371 + 96205 x372 + 98762 x373
       + 103914 x374 + 102935 x375 + 101651 x376 + 101381 x377 + 103796 x378
       + 90974 x379 + 91251 x380 + 103275 x381 + 105226 x382 + 109731 x383
       + 109659 x384 + 99645 x385 + 104371 x386 + 101103 x387 + 96615 x388
       + 99289 x389 + 109685 x390 + 102302 x391 + 103262 x392 + 94590 x393
       + 108586 x394 + 105492 x395 + 102456 x396 + 93677 x397 + 95570 x398
       + 106197 x399 + 93525 x400 + 107509 x401 + 91561 x402 + 103657 x403
       + 108317 x404 + 109367 x405 + 108575 x406 + 91326 x407 + 92479 x408
       + 94565 x409 + 108615 x410 + 106332 x411 + 103542 x412 + 104143 x413
       + 91230 x414 + 93019 x415 + 95711 x416 + 97878 x417 + 100232 x418
       + 97558 x419 + 90182 x420 + 99350 x421 + 107314 x422 + 104110 x423
       + 108444 x424 + 103462 x425 + 90566 x426 + 94504 x427 + 100735 x428
       + 109046 x429 + 98682 x430 + 93125 x431 + 99535 x432 + 109907 x433
       + 101793 x434 + 95784 x435 + 96599 x436 + 103502 x437 + 99050 x438
       + 103024 x439 + 93751 x440 + 108189 x441 + 100807 x442 + 100639 x443
       + 91324 x444 + 100158 x445 + 94856 x446 + 98690 x447 + 106849 x448
       + 102772 x449 + 109437 x450 + 102658 x451 + 101176 x452 + 95578 x453
       + 103557 x454 + 92798 x455 + 107350 x456 + 105454 x457 + 98626 x458
       + 100699 x459 + 91307 x460 + 98145 x461 + 94484 x462 + 95694 x463
       + 102904 x464 + 104853 x465 + 107607 x466 + 108001 x467 + 100754 x468
       + 95626 x469 + 109624 x470 + 100323 x471 + 95031 x472 + 108940 x473
       + 90213 x474 + 95139 x475 + 108660 x476 + 105186 x477 + 100031 x478
       + 91035 x479 + 109189 x480 + 91187 x481 + 98441 x482 + 98561 x483
       + 90101 x484 + 92137 x485 + 91917 x486 + 103275 x487 + 108087 x488
       + 103563 x489 + 99111 x490 + 94645 x491 + 100758 x492 + 93536 x493
       + 105402 x494 + 90471 x495 + 103586 x496 + 106719 x497 + 95864 x498
       + 101792 x499 + 90618 x500 + 93739 x501 + 100346 x502 + 108716 x503
       + 92323 x504 + 102977 x505 + 97924 x506 + 93536 x507 + 104273 x508
       + 104728 x509 + 101271 x510 + 104132 x511 + 93150 x512 + 90224 x513
       + 106024 x514 + 108524 x515 + 98910 x516 + 96151 x517 + 95423 x518
       + 94891 x519 + 94959 x520 + 109049 x521 + 96277 x522 + 90443 x523
       + 101780 x524 + 103411 x525 + 108757 x526 + 97259 x527 + 93697 x528
       + 102272 x529 + 99547 x530 + 93504 x531 + 93339 x532 + 99762 x533
       + 95587 x534 + 104436 x535 + 93836 x536 + 91341 x537 + 103900 x538
       + 109168 x539 + 104893 x540 + 105650 x541 + 99027 x542 + 92706 x543
       + 94837 x544 + 104572 x545 + 103206 x546 + 107969 x547 + 103680 x548
       + 94603 x549 + 92892 x550 + 95980 x551 + 90193 x552 + 90468 x553
       + 105024 x554 + 98656 x555 + 94165 x556 + 104183 x557 + 108969 x558
       + 97530 x559 + 91901 x560 + 94757 x561 + 98854 x562 + 99306 x563
       + 94628 x564 + 98520 x565 + 100107 x566 + 105498 x567 + 102378 x568
       + 107637 x569 + 95494 x570 + 94479 x571 + 106693 x572 + 96107 x573
       + 98448 x574 + 98867 x575 + 93324 x576 + 94912 x577 + 99635 x578
       + 96303 x579 + 99535 x580 + 90950 x581 + 106470 x582 + 107515 x583
       + 109730 x584 + 108042 x585 + 104681 x586 + 91958 x587 + 107819 x588
       + 102480 x589 + 96065 x590 + 108396 x591 + 105051 x592 + 90506 x593
       + 107190 x594 + 105444 x595 + 108042 x596 + 100560 x597 + 100094 x598
       + 105415 x599 - 3844 x600 + 422062 x601 + 394674 x602 + 373743 x603
       + 437605 x604 + 412711 x605 + 399650 x606 + 391555 x607 + 389721 x608
       + 422254 x609 + 425547 x610 + 392330 x611 + 431622 x612 + 378039 x613
       + 383548 x614 + 378055 x615 + 397103 x616 + 402129 x617 + 401141 x618
       + 396823 x619 + 408484 x620 + 388334 x621 + 371386 x622 + 408347 x623
       + 395041 x624 + 404022 x625 + 434521 x626 + 362713 x627 + 382036 x628
       + 414754 x629 + 380642 x630 + 406075 x631 + 429459 x632 + 372954 x633
       + 399813 x634 + 383933 x635 + 380921 x636 + 422583 x637 + 390999 x638
       + 397116 x639 + 371957 x640 + 409949 x641 + 413837 x642 + 397512 x643
       + 383339 x644 + 376493 x645 + 427290 x646 + 370062 x647 + 368815 x648
       + 362621 x649 + 406851 x650 + 414488 x651 + 438027 x652 + 432310 x653
       + 427018 x654 + 414666 x655 + 434181 x656 + 416469 x657 + 418333 x658
       + 365510 x659 + 385827 x660
Subject To
 c1:   x12 - x21 + x34 - x36 + x39 - x41 - x48 + x53  = 0
 c2:   x72 - x81 + x94 - x96 + x99 - x101 - x108 + x113  = 0
 c3:   x132 - x141 + x154 - x156 + x159 - x161 - x168 + x173  = 0
 c4:   x192 - x201 + x214 - x216 + x219 - x221 - x228 + x233  = 0
 c5:   x252 - x261 + x274 - x276 + x279 - x281 - x288 + x293  = 0
 c6:   x312 - x321 + x334 - x336 + x339 - x341 - x348 + x353  = -1
 c7:   x372 - x381 + x394 - x396 + x399 - x401 - x408 + x413  = 0
 c8:   x432 - x441 + x454 - x456 + x459 - x461 - x468 + x473  = 0
 c9:   x492 - x501 + x514 - x516 + x519 - x521 - x528 + x533  = 0
 c10:  x552 - x561 + x574 - x576 + x579 - x581 - x588 + x593  = 0
 c11:  - x2 - x4 + x20 + x29 + x35 - x43 - x45 + x47 + x50 - x55 + x56 - x57
       - x60  = 0
 c12:  - x62 - x64 + x80 + x89 + x95 - x103 - x105 + x107 + x110 - x115 + x116
       - x117 - x120  = 1
 c13:  - x122 - x124 + x140 + x149 + x155 - x163 - x165 + x167 + x170 - x175
       + x176 - x177 - x180  = 1
 c14:  - x182 - x184 + x200 + x209 + x215 - x223 - x225 + x227 + x230 - x235
       + x236 - x237 - x240  = 0
 c15:  - x242 - x244 + x260 + x269 + x275 - x283 - x285 + x287 + x290 - x295
       + x296 - x297 - x300  = 0
 c16:  - x302 - x304 + x320 + x329 + x335 - x343 - x345 + x347 + x350 - x355
       + x356 - x357 - x360  = 0
 c17:  - x362 - x364 + x380 + x389 + x395 - x403 - x405 + x407 + x410 - x415
       + x416 - x417 - x420  = 0
 c18:  - x422 - x424 + x440 + x449 + x455 - x463 - x465 + x467 + x470 - x475
       + x476 - x477 - x480  = 0
 c19:  - x482 - x484 + x500 + x509 + x515 - x523 - x525 + x527 + x530 - x535
       + x536 - x537 - x540  = 0
 c20:  - x542 - x544 + x560 + x569 + x575 - x583 - x585 + x587 + x590 - x595
       + x596 - x597 - x600  = 1
 c21:  - x3 + x8 + x9 - x11 - x16 + x19 + x21 + x44 + x54 + x55  = 0
 c22:  - x63 + x68 + x69 - x71 - x76 + x79 + x81 + x104 + x114 + x115  = 0
 c23:  - x123 + x128 + x129 - x131 - x136 + x139 + x141 + x164 + x174 + x175
        = 0
 c24:  - x183 + x188 + x189 - x191 - x196 + x199 + x201 + x224 + x234 + x235
        = 1
 c25:  - x243 + x248 + x249 - x251 - x256 + x259 + x261 + x284 + x294 + x295
        = 1
 c26:  - x303 + x308 + x309 - x311 - x316 + x319 + x321 + x344 + x354 + x355
        = 0
 c27:  - x363 + x368 + x369 - x371 - x376 + x379 + x381 + x404 + x414 + x415
        = -1
 c28:  - x423 + x428 + x429 - x431 - x436 + x439 + x441 + x464 + x474 + x475
        = 0
 c29:  - x483 + x488 + x489 - x491 - x496 + x499 + x501 + x524 + x534 + x535
        = 0
 c30:  - x543 + x548 + x549 - x551 - x556 + x559 + x561 + x584 + x594 + x595
        = 0
 c31:  x4 + x5 + x6 - x9 - x14 - x42 - x51  = 0
 c32:  x64 + x65 + x66 - x69 - x74 - x102 - x111  = 0
 c33:  x124 + x125 + x126 - x129 - x134 - x162 - x171  = 0
 c34:  x184 + x185 + x186 - x189 - x194 - x222 - x231  = 0
 c35:  x244 + x245 + x246 - x249 - x254 - x282 - x291  = 0
 c36:  x304 + x305 + x306 - x309 - x314 - x342 - x351  = 0
 c37:  x364 + x365 + x366 - x369 - x374 - x402 - x411  = 1
 c38:  x424 + x425 + x426 - x429 - x434 - x462 - x471  = 0
 c39:  x484 + x485 + x486 - x489 - x494 - x522 - x531  = 0
 c40:  x544 + x545 + x546 - x549 - x554 - x582 - x591  = 0
 c41:  - x8 + x11 + x13 + x33 - x34 + x46  = 0
 c42:  - x68 + x71 + x73 + x93 - x94 + x106  = 0
 c43:  - x128 + x131 + x133 + x153 - x154 + x166  = 0
 c44:  - x188 + x191 + x193 + x213 - x214 + x226  = 0
 c45:  - x248 + x251 + x253 + x273 - x274 + x286  = 0
 c46:  - x308 + x311 + x313 + x333 - x334 + x346  = 0
 c47:  - x368 + x371 + x373 + x393 - x394 + x406  = 0
 c48:  - x428 + x431 + x433 + x453 - x454 + x466  = 0
 c49:  - x488 + x491 + x493 + x513 - x514 + x526  = 0
 c50:  - x548 + x551 + x553 + x573 - x574 + x586  = -1
 c51:  - x15 - x20 - x24 - x26 + x32 - x49  = 0
 c52:  - x75 - x80 - x84 - x86 + x92 - x109  = 0
 c53:  - x135 - x140 - x144 - x146 + x152 - x169  = 0
 c54:  - x195 - x200 - x204 - x206 + x212 - x229  = -1
 c55:  - x255 - x260 - x264 - x266 + x272 - x289  = 0
 c56:  - x315 - x320 - x324 - x326 + x332 - x349  = 0
 c57:  - x375 - x380 - x384 - x386 + x392 - x409  = 0
 c58:  - x435 - x440 - x444 - x446 + x452 - x469  = 0
 c59:  - x495 - x500 - x504 - x506 + x512 - x529  = 0
 c60:  - x555 - x560 - x564 - x566 + x572 - x589  = 0
 c61:  x1 - x12 + x30 - x31 - x44 + x58 - x59  = 0
 c62:  x61 - x72 + x90 - x91 - x104 + x118 - x119  = 0
 c63:  x121 - x132 + x150 - x151 - x164 + x178 - x179  = 0
 c64:  x181 - x192 + x210 - x211 - x224 + x238 - x239  = 0
 c65:  x241 - x252 + x270 - x271 - x284 + x298 - x299  = 0
 c66:  x301 - x312 + x330 - x331 - x344 + x358 - x359  = 0
 c67:  x361 - x372 + x390 - x391 - x404 + x418 - x419  = 0
 c68:  x421 - x432 + x450 - x451 - x464 + x478 - x479  = 0
 c69:  x481 - x492 + x510 - x511 - x524 + x538 - x539  = -1
 c70:  x541 - x552 + x570 - x571 - x584 + x598 - x599  = 0
 c71:  x10 - x13 + x16 - x25 + x45  = 0
 c72:  x70 - x73 + x76 - x85 + x105  = 0
 c73:  x130 - x133 + x136 - x145 + x165  = -1
 c74:  x190 - x193 + x196 - x205 + x225  = 0
 c75:  x250 - x253 + x256 - x265 + x285  = 0
 c76:  x310 - x313 + x316 - x325 + x345  = 0
 c77:  x370 - x373 + x376 - x385 + x405  = 0
 c78:  x430 - x433 + x436 - x445 + x465  = 0
 c79:  x490 - x493 + x496 - x505 + x525  = 0
 c80:  x550 - x553 + x556 - x565 + x585  = 0
 c81:  x18 + x31 - x32 - x40 + x43  = 0
 c82:  x78 + x91 - x92 - x100 + x103  = 0
 c83:  x138 + x151 - x152 - x160 + x163  = 0
 c84:  x198 + x211 - x212 - x220 + x223  = 0
 c85:  x258 + x271 - x272 - x280 + x283  = 0
 c86:  x318 + x331 - x332 - x340 + x343  = 0
 c87:  x378 + x391 - x392 - x400 + x403  = 0
 c88:  x438 + x451 - x452 - x460 + x463  = 0
 c89:  x498 + x511 - x512 - x520 + x523  = 0
 c90:  x558 + x571 - x572 - x580 + x583  = 0
 c91:  x2 - x19 + x26 + x28 + x36 + x38 - x50 - x53  = 1
 c92:  x62 - x79 + x86 + x88 + x96 + x98 - x110 - x113  = 0
 c93:  x122 - x139 + x146 + x148 + x156 + x158 - x170 - x173  = 0
 c94:  x182 - x199 + x206 + x208 + x216 + x218 - x230 - x233  = 0
 c95:  x242 - x259 + x266 + x268 + x276 + x278 - x290 - x293  = 0
 c96:  x302 - x319 + x326 + x328 + x336 + x338 - x350 - x353  = 0
 c97:  x362 - x379 + x386 + x388 + x396 + x398 - x410 - x413  = 0
 c98:  x422 - x439 + x446 + x448 + x456 + x458 - x470 - x473  = 0
 c99:  x482 - x499 + x506 + x508 + x516 + x518 - x530 - x533  = 0
 c100: x542 - x559 + x566 + x568 + x576 + x578 - x590 - x593  = 0
 c101: - x17 + x22 + x23 - x30 - x47 + x48 + x49 + x60  = 0
 c102: - x77 + x82 + x83 - x90 - x107 + x108 + x109 + x120  = 0
 c103: - x137 + x142 + x143 - x150 - x167 + x168 + x169 + x180  = 0
 c104: - x197 + x202 + x203 - x210 - x227 + x228 + x229 + x240  = 0
 c105: - x257 + x262 + x263 - x270 - x287 + x288 + x289 + x300  = 0
 c106: - x317 + x322 + x323 - x330 - x347 + x348 + x349 + x360  = 0
 c107: - x377 + x382 + x383 - x390 - x407 + x408 + x409 + x420  = 0
 c108: - x437 + x442 + x443 - x450 - x467 + x468 + x469 + x480  = 0
 c109: - x497 + x502 + x503 - x510 - x527 + x528 + x529 + x540  = 0
 c110: - x557 + x562 + x563 - x570 - x587 + x588 + x589 + x600  = 0
 c111: - x5 + x15 + x17 - x23 - x29 - x38 + x40 + x51 + x52 - x54 - x58  = 0
 c112: - x65 + x75 + x77 - x83 - x89 - x98 + x100 + x111 + x112 - x114 - x118
        = 0
 c113: - x125 + x135 + x137 - x143 - x149 - x158 + x160 + x171 + x172 - x174
       - x178  = 0
 c114: - x185 + x195 + x197 - x203 - x209 - x218 + x220 + x231 + x232 - x234
       - x238  = 0
 c115: - x245 + x255 + x257 - x263 - x269 - x278 + x280 + x291 + x292 - x294
       - x298  = -1
 c116: - x305 + x315 + x317 - x323 - x329 - x338 + x340 + x351 + x352 - x354
       - x358  = 1
 c117: - x365 + x375 + x377 - x383 - x389 - x398 + x400 + x411 + x412 - x414
       - x418  = 0
 c118: - x425 + x435 + x437 - x443 - x449 - x458 + x460 + x471 + x472 - x474
       - x478  = 0
 c119: - x485 + x495 + x497 - x503 - x509 - x518 + x520 + x531 + x532 - x534
       - x538  = 0
 c120: - x545 + x555 + x557 - x563 - x569 - x578 + x580 + x591 + x592 - x594
       - x598  = 0
 c121: - x1 + x3 - x10 + x27 - x28 - x35 - x37 + x42  = 0
 c122: - x61 + x63 - x70 + x87 - x88 - x95 - x97 + x102  = 0
 c123: - x121 + x123 - x130 + x147 - x148 - x155 - x157 + x162  = 0
 c124: - x181 + x183 - x190 + x207 - x208 - x215 - x217 + x222  = 0
 c125: - x241 + x243 - x250 + x267 - x268 - x275 - x277 + x282  = 0
 c126: - x301 + x303 - x310 + x327 - x328 - x335 - x337 + x342  = 0
 c127: - x361 + x363 - x370 + x387 - x388 - x395 - x397 + x402  = 0
 c128: - x421 + x423 - x430 + x447 - x448 - x455 - x457 + x462  = 1
 c129: - x481 + x483 - x490 + x507 - x508 - x515 - x517 + x522  = 1
 c130: - x541 + x543 - x550 + x567 - x568 - x575 - x577 + x582  = 0
 c131: x7 - x18 - x22 + x24 + x25 - x46 - x52 + x57 + x59  = -1
 c132: x67 - x78 - x82 + x84 + x85 - x106 - x112 + x117 + x119  = -1
 c133: x127 - x138 - x142 + x144 + x145 - x166 - x172 + x177 + x179  = 0
 c134: x187 - x198 - x202 + x204 + x205 - x226 - x232 + x237 + x239  = 0
 c135: x247 - x258 - x262 + x264 + x265 - x286 - x292 + x297 + x299  = 0
 c136: x307 - x318 - x322 + x324 + x325 - x346 - x352 + x357 + x359  = 0
 c137: x367 - x378 - x382 + x384 + x385 - x406 - x412 + x417 + x419  = 0
 c138: x427 - x438 - x442 + x444 + x445 - x466 - x472 + x477 + x479  = -1
 c139: x487 - x498 - x502 + x504 + x505 - x526 - x532 + x537 + x539  = 0
 c140: x547 - x558 - x562 + x564 + x565 - x586 - x592 + x597 + x599  = 0
 c141: - x6 - x7 + x14 - x27 - x33 + x37 - x39 + x41 - x56  = 0
 c142: - x66 - x67 + x74 - x87 - x93 + x97 - x99 + x101 - x116  = 0
 c143: - x126 - x127 + x134 - x147 - x153 + x157 - x159 + x161 - x176  = 0
 c144: - x186 - x187 + x194 - x207 - x213 + x217 - x219 + x221 - x236  = 0
 c145: - x246 - x247 + x254 - x267 - x273 + x277 - x279 + x281 - x296  = 0
 c146: - x306 - x307 + x314 - x327 - x333 + x337 - x339 + x341 - x356  = 0
 c147: - x366 - x367 + x374 - x387 - x393 + x397 - x399 + x401 - x416  = 0
 c148: - x426 - x427 + x434 - x447 - x453 + x457 - x459 + x461 - x476  = 0
 c149: - x486 - x487 + x494 - x507 - x513 + x517 - x519 + x521 - x536  = 0
 c150: - x546 - x547 + x554 - x567 - x573 + x577 - x579 + x581 - x596  = 0
 c151: 4 x1 + 4 x61 + 4 x121 + 4 x181 + 4 x241 + 4 x301 + 4 x361 + 4 x421
       + 4 x481 + 4 x541 - 18 x601 <= 0
 c152: 4 x2 + 4 x62 + 4 x122 + 4 x182 + 4 x242 + 4 x302 + 4 x362 + 4 x422
       + 4 x482 + 4 x542 - 22 x602 <= 0
 c153: 4 x3 + 4 x63 + 4 x123 + 4 x183 + 4 x243 + 4 x303 + 4 x363 + 4 x423
       + 4 x483 + 4 x543 - 19 x603 <= 0
 c154: 4 x4 + 4 x64 + 4 x124 + 4 x184 + 4 x244 + 4 x304 + 4 x364 + 4 x424
       + 4 x484 + 4 x544 - 20 x604 <= 0
 c155: 4 x5 + 4 x65 + 4 x125 + 4 x185 + 4 x245 + 4 x305 + 4 x365 + 4 x425
       + 4 x485 + 4 x545 - 19 x605 <= 0
 c156: 4 x6 + 4 x66 + 4 x126 + 4 x186 + 4 x246 + 4 x306 + 4 x366 + 4 x426
       + 4 x486 + 4 x546 - 19 x606 <= 0
 c157: 4 x7 + 4 x67 + 4 x127 + 4 x187 + 4 x247 + 4 x307 + 4 x367 + 4 x427
       + 4 x487 + 4 x547 - 21 x607 <= 0
 c158: 4 x8 + 4 x68 + 4 x128 + 4 x188 + 4 x248 + 4 x308 + 4 x368 + 4 x428
       + 4 x488 + 4 x548 - 20 x608 <= 0
 c159: 4 x9 + 4 x69 + 4 x129 + 4 x189 + 4 x249 + 4 x309 + 4 x369 + 4 x429
       + 4 x489 + 4 x549 - 19 x609 <= 0
 c160: 4 x10 + 4 x70 + 4 x130 + 4 x190 + 4 x250 + 4 x310 + 4 x370 + 4 x430
       + 4 x490 + 4 x550 - 21 x610 <= 0
 c161: 4 x11 + 4 x71 + 4 x131 + 4 x191 + 4 x251 + 4 x311 + 4 x371 + 4 x431
       + 4 x491 + 4 x551 - 19 x611 <= 0
 c162: 4 x12 + 4 x72 + 4 x132 + 4 x192 + 4 x252 + 4 x312 + 4 x372 + 4 x432
       + 4 x492 + 4 x552 - 19 x612 <= 0
 c163: 4 x13 + 4 x73 + 4 x133 + 4 x193 + 4 x253 + 4 x313 + 4 x373 + 4 x433
       + 4 x493 + 4 x553 - 21 x613 <= 0
 c164: 4 x14 + 4 x74 + 4 x134 + 4 x194 + 4 x254 + 4 x314 + 4 x374 + 4 x434
       + 4 x494 + 4 x554 - 21 x614 <= 0
 c165: 4 x15 + 4 x75 + 4 x135 + 4 x195 + 4 x255 + 4 x315 + 4 x375 + 4 x435
       + 4 x495 + 4 x555 - 19 x615 <= 0
 c166: 4 x16 + 4 x76 + 4 x136 + 4 x196 + 4 x256 + 4 x316 + 4 x376 + 4 x436
       + 4 x496 + 4 x556 - 20 x616 <= 0
 c167: 4 x17 + 4 x77 + 4 x137 + 4 x197 + 4 x257 + 4 x317 + 4 x377 + 4 x437
       + 4 x497 + 4 x557 - 20 x617 <= 0
 c168: 4 x18 + 4 x78 + 4 x138 + 4 x198 + 4 x258 + 4 x318 + 4 x378 + 4 x438
       + 4 x498 + 4 x558 - 18 x618 <= 0
 c169: 4 x19 + 4 x79 + 4 x139 + 4 x199 + 4 x259 + 4 x319 + 4 x379 + 4 x439
       + 4 x499 + 4 x559 - 21 x619 <= 0
 c170: 4 x20 + 4 x80 + 4 x140 + 4 x200 + 4 x260 + 4 x320 + 4 x380 + 4 x440
       + 4 x500 + 4 x560 - 19 x620 <= 0
 c171: 4 x21 + 4 x81 + 4 x141 + 4 x201 + 4 x261 + 4 x321 + 4 x381 + 4 x441
       + 4 x501 + 4 x561 - 21 x621 <= 0
 c172: 4 x22 + 4 x82 + 4 x142 + 4 x202 + 4 x262 + 4 x322 + 4 x382 + 4 x442
       + 4 x502 + 4 x562 - 21 x622 <= 0
 c173: 4 x23 + 4 x83 + 4 x143 + 4 x203 + 4 x263 + 4 x323 + 4 x383 + 4 x443
       + 4 x503 + 4 x563 - 21 x623 <= 0
 c174: 4 x24 + 4 x84 + 4 x144 + 4 x204 + 4 x264 + 4 x324 + 4 x384 + 4 x444
       + 4 x504 + 4 x564 - 20 x624 <= 0
 c175: 4 x25 + 4 x85 + 4 x145 + 4 x205 + 4 x265 + 4 x325 + 4 x385 + 4 x445
       + 4 x505 + 4 x565 - 18 x625 <= 0
 c176: 4 x26 + 4 x86 + 4 x146 + 4 x206 + 4 x266 + 4 x326 + 4 x386 + 4 x446
       + 4 x506 + 4 x566 - 20 x626 <= 0
 c177: 4 x27 + 4 x87 + 4 x147 + 4 x207 + 4 x267 + 4 x327 + 4 x387 + 4 x447
       + 4 x507 + 4 x567 - 20 x627 <= 0
 c178: 4 x28 + 4 x88 + 4 x148 + 4 x208 + 4 x268 + 4 x328 + 4 x388 + 4 x448
       + 4 x508 + 4 x568 - 19 x628 <= 0
 c179: 4 x29 + 4 x89 + 4 x149 + 4 x209 + 4 x269 + 4 x329 + 4 x389 + 4 x449
       + 4 x509 + 4 x569 - 20 x629 <= 0
 c180: 4 x30 + 4 x90 + 4 x150 + 4 x210 + 4 x270 + 4 x330 + 4 x390 + 4 x450
       + 4 x510 + 4 x570 - 20 x630 <= 0
 c181: 4 x31 + 4 x91 + 4 x151 + 4 x211 + 4 x271 + 4 x331 + 4 x391 + 4 x451
       + 4 x511 + 4 x571 - 21 x631 <= 0
 c182: 4 x32 + 4 x92 + 4 x152 + 4 x212 + 4 x272 + 4 x332 + 4 x392 + 4 x452
       + 4 x512 + 4 x572 - 20 x632 <= 0
 c183: 4 x33 + 4 x93 + 4 x153 + 4 x213 + 4 x273 + 4 x333 + 4 x393 + 4 x453
       + 4 x513 + 4 x573 - 20 x633 <= 0
 c184: 4 x34 + 4 x94 + 4 x154 + 4 x214 + 4 x274 + 4 x334 + 4 x394 + 4 x454
       + 4 x514 + 4 x574 - 21 x634 <= 0
 c185: 4 x35 + 4 x95 + 4 x155 + 4 x215 + 4 x275 + 4 x335 + 4 x395 + 4 x455
       + 4 x515 + 4 x575 - 21 x635 <= 0
 c186: 4 x36 + 4 x96 + 4 x156 + 4 x216 + 4 x276 + 4 x336 + 4 x396 + 4 x456
       + 4 x516 + 4 x576 - 21 x636 <= 0
 c187: 4 x37 + 4 x97 + 4 x157 + 4 x217 + 4 x277 + 4 x337 + 4 x397 + 4 x457
       + 4 x517 + 4 x577 - 21 x637 <= 0
 c188: 4 x38 + 4 x98 + 4 x158 + 4 x218 + 4 x278 + 4 x338 + 4 x398 + 4 x458
       + 4 x518 + 4 x578 - 18 x638 <= 0
 c189: 4 x39 + 4 x99 + 4 x159 + 4 x219 + 4 x279 + 4 x339 + 4 x399 + 4 x459
       + 4 x519 + 4 x579 - 19 x639 <= 0
 c190: 4 x40 + 4 x100 + 4 x160 + 4 x220 + 4 x280 + 4 x340 + 4 x400 + 4 x460
       + 4 x520 + 4 x580 - 19 x640 <= 0
 c191: 4 x41 + 4 x101 + 4 x161 + 4 x221 + 4 x281 + 4 x341 + 4 x401 + 4 x461
       + 4 x521 + 4 x581 - 19 x641 <= 0
 c192: 4 x42 + 4 x102 + 4 x162 + 4 x222 + 4 x282 + 4 x342 + 4 x402 + 4 x462
       + 4 x522 + 4 x582 - 19 x642 <= 0
 c193: 4 x43 + 4 x103 + 4 x163 + 4 x223 + 4 x283 + 4 x343 + 4 x403 + 4 x463
       + 4 x523 + 4 x583 - 18 x643 <= 0
 c194: 4 x44 + 4 x104 + 4 x164 + 4 x224 + 4 x284 + 4 x344 + 4 x404 + 4 x464
       + 4 x524 + 4 x584 - 19 x644 <= 0
 c195: 4 x45 + 4 x105 + 4 x165 + 4 x225 + 4 x285 + 4 x345 + 4 x405 + 4 x465
       + 4 x525 + 4 x585 - 21 x645 <= 0
 c196: 4 x46 + 4 x106 + 4 x166 + 4 x226 + 4 x286 + 4 x346 + 4 x406 + 4 x466
       + 4 x526 + 4 x586 - 18 x646 <= 0
 c197: 4 x47 + 4 x107 + 4 x167 + 4 x227 + 4 x287 + 4 x347 + 4 x407 + 4 x467
       + 4 x527 + 4 x587 - 21 x647 <= 0
 c198: 4 x48 + 4 x108 + 4 x168 + 4 x228 + 4 x288 + 4 x348 + 4 x408 + 4 x468
       + 4 x528 + 4 x588 - 19 x648 <= 0
 c199: 4 x49 + 4 x109 + 4 x169 + 4 x229 + 4 x289 + 4 x349 + 4 x409 + 4 x469
       + 4 x529 + 4 x589 - 20 x649 <= 0
 c200: 4 x50 + 4 x110 + 4 x170 + 4 x230 + 4 x290 + 4 x350 + 4 x410 + 4 x470
       + 4 x530 + 4 x590 - 22 x650 <= 0
 c201: 4 x51 + 4 x111 + 4 x171 + 4 x231 + 4 x291 + 4 x351 + 4 x411 + 4 x471
       + 4 x531 + 4 x591 - 20 x651 <= 0
 c202: 4 x52 + 4 x112 + 4 x172 + 4 x232 + 4 x292 + 4 x352 + 4 x412 + 4 x472
       + 4 x532 + 4 x592 - 19 x652 <= 0
 c203: 4 x53 + 4 x113 + 4 x173 + 4 x233 + 4 x293 + 4 x353 + 4 x413 + 4 x473
       + 4 x533 + 4 x593 - 22 x653 <= 0
 c204: 4 x54 + 4 x114 + 4 x174 + 4 x234 + 4 x294 + 4 x354 + 4 x414 + 4 x474
       + 4 x534 + 4 x594 - 20 x654 <= 0
 c205: 4 x55 + 4 x115 + 4 x175 + 4 x235 + 4 x295 + 4 x355 + 4 x415 + 4 x475
       + 4 x535 + 4 x595 - 21 x655 <= 0
 c206: 4 x56 + 4 x116 + 4 x176 + 4 x236 + 4 x296 + 4 x356 + 4 x416 + 4 x476
       + 4 x536 + 4 x596 - 19 x656 <= 0
 c207: 4 x57 + 4 x117 + 4 x177 + 4 x237 + 4 x297 + 4 x357 + 4 x417 + 4 x477
       + 4 x537 + 4 x597 - 22 x657 <= 0
 c208: 4 x58 + 4 x118 + 4 x178 + 4 x238 + 4 x298 + 4 x358 + 4 x418 + 4 x478
       + 4 x538 + 4 x598 - 19 x658 <= 0
 c209: 4 x59 + 4 x119 + 4 x179 + 4 x239 + 4 x299 + 4 x359 + 4 x419 + 4 x479
       + 4 x539 + 4 x599 - 19 x659 <= 0
 c210: 4 x60 + 4 x120 + 4 x180 + 4 x240 + 4 x300 + 4 x360 + 4 x420 + 4 x480
       + 4 x540 + 4 x600 - 27 x660 <= 0
Bounds
 0 <= x1 <= 1
 0 <= x2 <= 1
 0 <= x3 <= 1
 0 <= x4 <= 1
 0 <= x5 <= 1
 0 <= x6 <= 1
 0 <= x7 <= 1
 0 <= x8 <= 1
 0 <= x9 <= 1
 0 <= x10 <= 1
 0 <= x11 <= 1
 0 <= x12 <= 1
 0 <= x13 <= 1
 0 <= x14 <= 1
 0 <= x15 <= 1
 0 <= x16 <= 1
 0 <= x17 <= 1
 0 <= x18 <= 1
 0 <= x19 <= 1
 0 <= x20 <= 1
 0 <= x21 <= 1
 0 <= x22 <= 1
 0 <= x23 <= 1
 0 <= x24 <= 1
 0 <= x25 <= 1
 0 <= x26 <= 1
 0 <= x27 <= 1
 0 <= x28 <= 1
 0 <= x29 <= 1
 0 <= x30 <= 1
 0 <= x31 <= 1
 0 <= x32 <= 1
 0 <= x33 <= 1
 0 <= x34 <= 1
 0 <= x35 <= 1
 0 <= x36 <= 1
 0 <= x37 <= 1
 0 <= x38 <= 1
 0 <= x39 <= 1
 0 <= x40 <= 1
 0 <= x41 <= 1
 0 <= x42 <= 1
 0 <= x43 <= 1
 0 <= x44 <= 1
 0 <= x45 <= 1
 0 <= x46 <= 1
 0 <= x47 <= 1
 0 <= x48 <= 1
 0 <= x49 <= 1
 0 <= x50 <= 1
 0 <= x51 <= 1
 0 <= x52 <= 1
 0 <= x53 <= 1
 0 <= x54 <= 1
 0 <= x55 <= 1
 0 <= x56 <= 1
 0 <= x57 <= 1
 0 <= x58 <= 1
 0 <= x59 <= 1
 0 <= x60 <= 1
 0 <= x61 <= 1
 0 <= x62 <= 1
 0 <= x63 <= 1
 0 <= x64 <= 1
 0 <= x65 <= 1
 0 <= x66 <= 1
 0 <= x67 <= 1
 0 <= x68 <= 1
 0 <= x69 <= 1
 0 <= x70 <= 1
 0 <= x71 <= 1
 0 <= x72 <= 1
 0 <= x73 <= 1
 0 <= x74 <= 1
 0 <= x75 <= 1
 0 <= x76 <= 1
 0 <= x77 <= 1
 0 <= x78 <= 1
 0 <= x79 <= 1
 0 <= x80 <= 1
 0 <= x81 <= 1
 0 <= x82 <= 1
 0 <= x83 <= 1
 0 <= x84 <= 1
 0 <= x85 <= 1
 0 <= x86 <= 1
 0 <= x87 <= 1
 0 <= x88 <= 1
 0 <= x89 <= 1
 0 <= x90 <= 1
 0 <= x91 <= 1
 0 <= x92 <= 1
 0 <= x93 <= 1
 0 <= x94 <= 1
 0 <= x95 <= 1
 0 <= x96 <= 1
 0 <= x97 <= 1
 0 <= x98 <= 1
 0 <= x99 <= 1
 0 <= x100 <= 1
 0 <= x101 <= 1
 0 <= x102 <= 1
 0 <= x103 <= 1
 0 <= x104 <= 1
 0 <= x105 <= 1
 0 <= x106 <= 1
 0 <= x107 <= 1
 0 <= x108 <= 1
 0 <= x109 <= 1
 0 <= x110 <= 1
 0 <= x111 <= 1
 0 <= x112 <= 1
 0 <= x113 <= 1
 0 <= x114 <= 1
 0 <= x115 <= 1
 0 <= x116 <= 1
 0 <= x117 <= 1
 0 <= x118 <= 1
 0 <= x119 <= 1
 0 <= x120 <= 1
 0 <= x121 <= 1
 0 <= x122 <= 1
 0 <= x123 <= 1
 0 <= x124 <= 1
 0 <= x125 <= 1
 0 <= x126 <= 1
 0 <= x127 <= 1
 0 <= x128 <= 1
 0 <= x129 <= 1
 0 <= x130 <= 1
 0 <= x131 <= 1
 0 <= x132 <= 1
 0 <= x133 <= 1
 0 <= x134 <= 1
 0 <= x135 <= 1
 0 <= x136 <= 1
 0 <= x137 <= 1
 0 <= x138 <= 1
 0 <= x139 <= 1
 0 <= x140 <= 1
 0 <= x141 <= 1
 0 <= x142 <= 1
 0 <= x143 <= 1
 0 <= x144 <= 1
 0 <= x145 <= 1
 0 <= x146 <= 1
 0 <= x147 <= 1
 0 <= x148 <= 1
 0 <= x149 <= 1
 0 <= x150 <= 1
 0 <= x151 <= 1
 0 <= x152 <= 1
 0 <= x153 <= 1
 0 <= x154 <= 1
 0 <= x155 <= 1
 0 <= x156 <= 1
 0 <= x157 <= 1
 0 <= x158 <= 1
 0 <= x159 <= 1
 0 <= x160 <= 1
 0 <= x161 <= 1
 0 <= x162 <= 1
 0 <= x163 <= 1
 0 <= x164 <= 1
 0 <= x165 <= 1
 0 <= x166 <= 1
 0 <= x167 <= 1
 0 <= x168 <= 1
 0 <= x169 <= 1
 0 <= x170 <= 1
 0 <= x171 <= 1
 0 <= x172 <= 1
 0 <= x173 <= 1
 0 <= x174 <= 1
 0 <= x175 <= 1
 0 <= x176 <= 1
 0 <= x177 <= 1
 0 <= x178 <= 1
 0 <= x179 <= 1
 0 <= x180 <= 1
 0 <= x181 <= 1
 0 <= x182 <= 1
 0 <= x183 <= 1
 0 <= x184 <= 1
 0 <= x185 <= 1
 0 <= x186 <= 1
 0 <= x187 <= 1
 0 <= x188 <= 1
 0 <= x189 <= 1
 0 <= x190 <= 1
 0 <= x191 <= 1
 0 <= x192 <= 1
 0 <= x193 <= 1
 0 <= x194 <= 1
 0 <= x195 <= 1
 0 <= x196 <= 1
 0 <= x197 <= 1
 0 <= x198 <= 1
 0 <= x199 <= 1
 0 <= x200 <= 1
 0 <= x201 <= 1
 0 <= x202 <= 1
 0 <= x203 <= 1
 0 <= x204 <= 1
 0 <= x205 <= 1
 0 <= x206 <= 1
 0 <= x207 <= 1
 0 <= x208 <= 1
 0 <= x209 <= 1
 0 <= x210 <= 1
 0 <= x211 <= 1
 0 <= x212 <= 1
 0 <= x213 <= 1
 0 <= x214 <= 1
 0 <= x215 <= 1
 0 <= x216 <= 1
 0 <= x217 <= 1
 0 <= x218 <= 1
 0 <= x219 <= 1
 0 <= x220 <= 1
 0 <= x221 <= 1
 0 <= x222 <= 1
 0 <= x223 <= 1
 0 <= x224 <= 1
 0 <= x225 <= 1
 0 <= x226 <= 1
 0 <= x227 <= 1
 0 <= x228 <= 1
 0 <= x229 <= 1
 0 <= x230 <= 1
 0 <= x231 <= 1
 0 <= x232 <= 1
 0 <= x233 <= 1
 0 <= x234 <= 1
 0 <= x235 <= 1
 0 <= x236 <= 1
 0 <= x237 <= 1
 0 <= x238 <= 1
 0 <= x239 <= 1
 0 <= x240 <= 1
 0 <= x241 <= 1
 0 <= x242 <= 1
 0 <= x243 <= 1
 0 <= x244 <= 1
 0 <= x245 <= 1
 0 <= x246 <= 1
 0 <= x247 <= 1
 0 <= x248 <= 1
 0 <= x249 <= 1
 0 <= x250 <= 1
 0 <= x251 <= 1
 0 <= x252 <= 1
 0 <= x253 <= 1
 0 <= x254 <= 1
 0 <= x255 <= 1
 0 <= x256 <= 1
 0 <= x257 <= 1
 0 <= x258 <= 1
 0 <= x259 <= 1
 0 <= x260 <= 1
 0 <= x261 <= 1
 0 <= x262 <= 1
 0 <= x263 <= 1
 0 <= x264 <= 1
 0 <= x265 <= 1
 0 <= x266 <= 1
 0 <= x267 <= 1
 0 <= x268 <= 1
 0 <= x269 <= 1
 0 <= x270 <= 1
 0 <= x271 <= 1
 0 <= x272 <= 1
 0 <= x273 <= 1
 0 <= x274 <= 1
 0 <= x275 <= 1
 0 <= x276 <= 1
 0 <= x277 <= 1
 0 <= x278 <= 1
 0 <= x279 <= 1
 0 <= x280 <= 1
 0 <= x281 <= 1
 0 <= x282 <= 1
 0 <= x283 <= 1
 0 <= x284 <= 1
 0 <= x285 <= 1
 0 <= x286 <= 1
 0 <= x287 <= 1
 0 <= x288 <= 1
 0 <= x289 <= 1
 0 <= x290 <= 1
 0 <= x291 <= 1
 0 <= x292 <= 1
 0 <= x293 <= 1
 0 <= x294 <= 1
 0 <= x295 <= 1
 0 <= x296 <= 1
 0 <= x297 <= 1
 0 <= x298 <= 1
 0 <= x299 <= 1
 0 <= x300 <= 1
 0 <= x301 <= 1
 0 <= x302 <= 1
 0 <= x303 <= 1
 0 <= x304 <= 1
 0 <= x305 <= 1
 0 <= x306 <= 1
 0 <= x307 <= 1
 0 <= x308 <= 1
 0 <= x309 <= 1
 0 <= x310 <= 1
 0 <= x311 <= 1
 0 <= x312 <= 1
 0 <= x313 <= 1
 0 <= x314 <= 1
 0 <= x315 <= 1
 0 <= x316 <= 1
 0 <= x317 <= 1
 0 <= x318 <= 1
 0 <= x319 <= 1
 0 <= x320 <= 1
 0 <= x321 <= 1
 0 <= x322 <= 1
 0 <= x323 <= 1
 0 <= x324 <= 1
 0 <= x325 <= 1
 0 <= x326 <= 1
 0 <= x327 <= 1
 0 <= x328 <= 1
 0 <= x329 <= 1
 0 <= x330 <= 1
 0 <= x331 <= 1
 0 <= x332 <= 1
 0 <= x333 <= 1
 0 <= x334 <= 1
 0 <= x335 <= 1
 0 <= x336 <= 1
 0 <= x337 <= 1
 0 <= x338 <= 1
 0 <= x339 <= 1
 0 <= x340 <= 1
 0 <= x341 <= 1
 0 <= x342 <= 1
 0 <= x343 <= 1
 0 <= x344 <= 1
 0 <= x345 <= 1
 0 <= x346 <= 1
 0 <= x347 <= 1
 0 <= x348 <= 1
 0 <= x349 <= 1
 0 <= x350 <= 1
 0 <= x351 <= 1
 0 <= x352 <= 1
 0 <= x353 <= 1
 0 <= x354 <= 1
 0 <= x355 <= 1
 0 <= x356 <= 1
 0 <= x357 <= 1
 0 <= x358 <= 1
 0 <= x359 <= 1
 0 <= x360 <= 1
 0 <= x361 <= 1
 0 <= x362 <= 1
 0 <= x363 <= 1
 0 <= x364 <= 1
 0 <= x365 <= 1
 0 <= x366 <= 1
 0 <= x367 <= 1
 0 <= x368 <= 1
 0 <= x369 <= 1
 0 <= x370 <= 1
 0 <= x371 <= 1
 0 <= x372 <= 1
 0 <= x373 <= 1
 0 <= x374 <= 1
 0 <= x375 <= 1
 0 <= x376 <= 1
 0 <= x377 <= 1
 0 <= x378 <= 1
 0 <= x379 <= 1
 0 <= x380 <= 1
 0 <= x381 <= 1
 0 <= x382 <= 1
 0 <= x383 <= 1
 0 <= x384 <= 1
 0 <= x385 <= 1
 0 <= x386 <= 1
 0 <= x387 <= 1
 0 <= x388 <= 1
 0 <= x389 <= 1
 0 <= x390 <= 1
 0 <= x391 <= 1
 0 <= x392 <= 1
 0 <= x393 <= 1
 0 <= x394 <= 1
 0 <= x395 <= 1
 0 <= x396 <= 1
 0 <= x397 <= 1
 0 <= x398 <= 1
 0 <= x399 <= 1
 0 <= x400 <= 1
 0 <= x401 <= 1
 0 <= x402 <= 1
 0 <= x403 <= 1
 0 <= x404 <= 1
 0 <= x405 <= 1
 0 <= x406 <= 1
 0 <= x407 <= 1
 0 <= x408 <= 1
 0 <= x409 <= 1
 0 <= x410 <= 1
 0 <= x411 <= 1
 0 <= x412 <= 1
 0 <= x413 <= 1
 0 <= x414 <= 1
 0 <= x415 <= 1
 0 <= x416 <= 1
 0 <= x417 <= 1
 0 <= x418 <= 1
 0 <= x419 <= 1
 0 <= x420 <= 1
 0 <= x421 <= 1
 0 <= x422 <= 1
 0 <= x423 <= 1
 0 <= x424 <= 1
 0 <= x425 <= 1
 0 <= x426 <= 1
 0 <= x427 <= 1
 0 <= x428 <= 1
 0 <= x429 <= 1
 0 <= x430 <= 1
 0 <= x431 <= 1
 0 <= x432 <= 1
 0 <= x433 <= 1
 0 <= x434 <= 1
 0 <= x435 <= 1
 0 <= x436 <= 1
 0 <= x437 <= 1
 0 <= x438 <= 1
 0 <= x439 <= 1
 0 <= x440 <= 1
 0 <= x441 <= 1
 0 <= x442 <= 1
 0 <= x443 <= 1
 0 <= x444 <= 1
 0 <= x445 <= 1
 0 <= x446 <= 1
 0 <= x447 <= 1
 0 <= x448 <= 1
 0 <= x449 <= 1
 0 <= x450 <= 1
 0 <= x451 <= 1
 0 <= x452 <= 1
 0 <= x453 <= 1
 0 <= x454 <= 1
 0 <= x455 <= 1
 0 <= x456 <= 1
 0 <= x457 <= 1
 0 <= x458 <= 1
 0 <= x459 <= 1
 0 <= x460 <= 1
 0 <= x461 <= 1
 0 <= x462 <= 1
 0 <= x463 <= 1
 0 <= x464 <= 1
 0 <= x465 <= 1
 0 <= x466 <= 1
 0 <= x467 <= 1
 0 <= x468 <= 1
 0 <= x469 <= 1
 0 <= x470 <= 1
 0 <= x471 <= 1
 0 <= x472 <= 1
 0 <= x473 <= 1
 0 <= x474 <= 1
 0 <= x475 <= 1
 0 <= x476 <= 1
 0 <= x477 <= 1
 0 <= x478 <= 1
 0 <= x479 <= 1
 0 <= x480 <= 1
 0 <= x481 <= 1
 0 <= x482 <= 1
 0 <= x483 <= 1
 0 <= x484 <= 1
 0 <= x485 <= 1
 0 <= x486 <= 1
 0 <= x487 <= 1
 0 <= x488 <= 1
 0 <= x489 <= 1
 0 <= x490 <= 1
 0 <= x491 <= 1
 0 <= x492 <= 1
 0 <= x493 <= 1
 0 <= x494 <= 1
 0 <= x495 <= 1
 0 <= x496 <= 1
 0 <= x497 <= 1
 0 <= x498 <= 1
 0 <= x499 <= 1
 0 <= x500 <= 1
 0 <= x501 <= 1
 0 <= x502 <= 1
 0 <= x503 <= 1
 0 <= x504 <= 1
 0 <= x505 <= 1
 0 <= x506 <= 1
 0 <= x507 <= 1
 0 <= x508 <= 1
 0 <= x509 <= 1
 0 <= x510 <= 1
 0 <= x511 <= 1
 0 <= x512 <= 1
 0 <= x513 <= 1
 0 <= x514 <= 1
 0 <= x515 <= 1
 0 <= x516 <= 1
 0 <= x517 <= 1
 0 <= x518 <= 1
 0 <= x519 <= 1
 0 <= x520 <= 1
 0 <= x521 <= 1
 0 <= x522 <= 1
 0 <= x523 <= 1
 0 <= x524 <= 1
 0 <= x525 <= 1
 0 <= x526 <= 1
 0 <= x527 <= 1
 0 <= x528 <= 1
 0 <= x529 <= 1
 0 <= x530 <= 1
 0 <= x531 <= 1
 0 <= x532 <= 1
 0 <= x533 <= 1
 0 <= x534 <= 1
 0 <= x535 <= 1
 0 <= x536 <= 1
 0 <= x537 <= 1
 0 <= x538 <= 1
 0 <= x539 <= 1
 0 <= x540 <= 1
 0 <= x541 <= 1
 0 <= x542 <= 1
 0 <= x543 <= 1
 0 <= x544 <= 1
 0 <= x545 <= 1
 0 <= x546 <= 1
 0 <= x547 <= 1
 0 <= x548 <= 1
 0 <= x549 <= 1
 0 <= x550 <= 1
 0 <= x551 <= 1
 0 <= x552 <= 1
 0 <= x553 <= 1
 0 <= x554 <= 1
 0 <= x555 <= 1
 0 <= x556 <= 1
 0 <= x557 <= 1
 0 <= x558 <= 1
 0 <= x559 <= 1
 0 <= x560 <= 1
 0 <= x561 <= 1
 0 <= x562 <= 1
 0 <= x563 <= 1
 0 <= x564 <= 1
 0 <= x565 <= 1
 0 <= x566 <= 1
 0 <= x567 <= 1
 0 <= x568 <= 1
 0 <= x569 <= 1
 0 <= x570 <= 1
 0 <= x571 <= 1
 0 <= x572 <= 1
 0 <= x573 <= 1
 0 <= x574 <= 1
 0 <= x575 <= 1
 0 <= x576 <= 1
 0 <= x577 <= 1
 0 <= x578 <= 1
 0 <= x579 <= 1
 0 <= x580 <= 1
 0 <= x581 <= 1
 0 <= x582 <= 1
 0 <= x583 <= 1
 0 <= x584 <= 1
 0 <= x585 <= 1
 0 <= x586 <= 1
 0 <= x587 <= 1
 0 <= x588 <= 1
 0 <= x589 <= 1
 0 <= x590 <= 1
 0 <= x591 <= 1
 0 <= x592 <= 1
 0 <= x593 <= 1
 0 <= x594 <= 1
 0 <= x595 <= 1
 0 <= x596 <= 1
 0 <= x597 <= 1
 0 <= x598 <= 1
 0 <= x599 <= 1
 0 <= x600 <= 1
 0 <= x601 <= 1
 0 <= x602 <= 1
 0 <= x603 <= 1
 0 <= x604 <= 1
 0 <= x605 <= 1
 0 <= x606 <= 1
 0 <= x607 <= 1
 0 <= x608 <= 1
 0 <= x609 <= 1
 0 <= x610 <= 1
 0 <= x611 <= 1
 0 <= x612 <= 1
 0 <= x613 <= 1
 0 <= x614 <= 1
 0 <= x615 <= 1
 0 <= x616 <= 1
 0 <= x617 <= 1
 0 <= x618 <= 1
 0 <= x619 <= 1
 0 <= x620 <= 1
 0 <= x621 <= 1
 0 <= x622 <= 1
 0 <= x623 <= 1
 0 <= x624 <= 1
 0 <= x625 <= 1
 0 <= x626 <= 1
 0 <= x627 <= 1
 0 <= x628 <= 1
 0 <= x629 <= 1
 0 <= x630 <= 1
 0 <= x631 <= 1
 0 <= x632 <= 1
 0 <= x633 <= 1
 0 <= x634 <= 1
 0 <= x635 <= 1
 0 <= x636 <= 1
 0 <= x637 <= 1
 0 <= x638 <= 1
 0 <= x639 <= 1
 0 <= x640 <= 1
 0 <= x641 <= 1
 0 <= x642 <= 1
 0 <= x643 <= 1
 0 <= x644 <= 1
 0 <= x645 <= 1
 0 <= x646 <= 1
 0 <= x647 <= 1
 0 <= x648 <= 1
 0 <= x649 <= 1
 0 <= x650 <= 1
 0 <= x651 <= 1
 0 <= x652 <= 1
 0 <= x653 <= 1
 0 <= x654 <= 1
 0 <= x655 <= 1
 0 <= x656 <= 1
 0 <= x657 <= 1
 0 <= x658 <= 1
 0 <= x659 <= 1
 0 <= x660 <= 1
Binaries
 x601  x602  x603  x604  x605  x606  x607  x608  x609  x610  x611  x612  x613 
 x614  x615  x616  x617  x618  x619  x620  x621  x622  x623  x624  x625  x626 
 x627  x628  x629  x630  x631  x632  x633  x634  x635  x636  x637  x638  x639 
 x640  x641  x642  x643  x644  x645  x646  x647  x648  x649  x650  x651  x652 
 x653  x654  x655  x656  x657  x658  x659  x660 
End
